
Gurobi 9.5.1 (linux64) logging started Tue 16 Aug 2022 05:27:27 PM MST

Set parameter LogFile to value "/home/local/ASUAD/kmajd1/NNRepLayer_v2/demos/walking_example/global_constraint_upper_10/repair_net/logs/opt_log_multi_39.log"
Gurobi Optimizer version 9.5.1 build v9.5.1rc2 (linux64)
Thread count: 48 physical cores, 96 logical processors, using up to 45 threads
Optimize a model with 16863 rows, 10742 columns and 142847 nonzeros
Model fingerprint: 0xdaedf74c
Model has 149 quadratic objective terms
Variable types: 5974 continuous, 4768 integer (4768 binary)
Coefficient statistics:
  Matrix range     [5e-04, 2e+02]
  Objective range  [2e-05, 1e+00]
  QObjective range [1e-02, 1e-02]
  Bounds range     [1e+00, 1e+03]
  RHS range        [3e-04, 2e+02]

Concurrent MIP optimizer: 3 concurrent instances (15 threads per instance)

Presolve removed 298 rows and 0 columns
Presolve time: 0.16s
Presolved: 16565 rows, 10742 columns, 142549 nonzeros
Presolved model has 149 quadratic objective terms
Variable types: 5974 continuous, 4768 integer (4768 binary)
Root relaxation presolve removed 4768 rows and 4768 columns
Root relaxation presolved: 11797 rows, 5974 columns, 128245 nonzeros
Root relaxation presolved model has 149 quadratic objective terms


Root relaxation: objective 3.039772e+01, 6993 iterations, 0.47 seconds (0.87 work units)

    Nodes    |    Current Node    |     Objective Bounds      |     Work
 Expl Unexpl |  Obj  Depth IntInf | Incumbent    BestBd   Gap | It/Node Time

     0     0      -    -    -      188.52309   30.39772  83.9%     -    1s
     0     0      -    -    -      187.76501   30.39772  83.8%     -    3s
     0     2      -    -    -      184.34258   30.39772  83.5%     -    6s
    30    46      -    -    -       41.57626   30.39772  26.9%     -   11s
   154   170      -    -    -       41.57626   30.39772  26.9%     -   17s
   224   240      -    -    -       35.57847   30.39772  14.6%     -   31s
  1298  1314      -    -    -       35.57847   30.39772  14.6%     -   39s
  1678  1779      -    -    -       35.57847   30.39772  14.6%     -   40s
  3527  3715      -    -    -       35.36813   30.39772  14.1%     -   45s
  6855  7147      -    -    -       35.36813   30.39772  14.1%     -   50s
  8328  8681      -    -    -       35.36813   30.39772  14.1%     -   55s
  9758 10002      -    -    -       35.36813   30.39772  14.1%     -   60s
 10002 10003      -    -    -       35.36813   30.39772  14.1%     -   72s
 10004  9503      -    -    -       35.34675   30.39772  14.0%     -   77s
 10006  9505      -    -    -       35.33840   30.39772  14.0%     -   89s
 10007  9508      -    -    -       35.33840   30.39772  14.0%     -   90s
 10036  9066      -    -    -       35.33840   30.39772  14.0%     -   96s
 10096  7431      -    -    -       35.30434   30.39772  13.9%     -  124s
 10111  6723      -    -    -       35.30434   30.39772  13.9%     -  145s
 10819  5735      -    -    -       35.30434   30.39772  13.9%     -  160s
 11914  6167      -    -    -       35.30434   30.39772  13.9%     -  182s
 13161  7171      -    -    -       35.30434   30.39772  13.9%     -  185s
 17075  9903      -    -    -       35.30434   30.39772  13.9%     -  190s
 18632 10878      -    -    -       34.31684   30.39772  11.4%     -  213s
 19223 11324      -    -    -       34.31684   30.39772  11.4%     -  215s
 20196 13592      -    -    -       34.31684   30.39772  11.4%     -  220s
 23244 14258      -    -    -       33.90525   30.39772  10.3%     -  225s

Instance 1 was solved

Explored 23549 nodes (1898765 simplex iterations) in 225.18 seconds (440.08 work units)
Thread count was 15 (of 96 available processors)

Solution count 10: 33.9053 33.9061 34.3168 ... 35.3182 

Optimal solution found (tolerance 1.10e-01)
Best objective 3.390525431114e+01, best bound 3.039771550048e+01, gap 10.3451%
